% Logging successfully configured
%%%mzn-stat: initTime=0.002459629
%%%mzn-stat: objective=776
%%%mzn-stat: nodes=138
%%%mzn-stat: restarts=0
%%%mzn-stat: peakDepth=127
%%%mzn-stat: solveTime=0.000832598
%%%mzn-stat: variables=280
%%%mzn-stat: propagators=374
%%%mzn-stat: failures=11
%%%mzn-stat: propagations=2277
%%%mzn-stat: nogoods=11
%%%mzn-stat: numAtomicConstraintsPropagated=0
%%%mzn-stat: circuitNumber191PropagationsThatFoundConflict=2
%%%mzn-stat: circuitNumber191TotalFixedEdgesAtConflict=26
%%%mzn-stat: circuitNumber191NumberOfConflicts=2
%%%mzn-stat: circuitNumber191PropagationsThatPruned=7
%%%mzn-stat: circuitNumber191PropagationsTotal=30
%%%mzn-stat: AverageConflictSize=3.4545454545454546
%%%mzn-stat: NumUnitNogoodsLearned=0
%%%mzn-stat: AverageLearnedNogoodLength=9.636363636363637
%%%mzn-stat: AverageBacktrackAmount=0
%%%mzn-stat: AverageLbd=6.090909090909091
%%%mzn-stat: 2AutonomousSearchNumBackupCalled=116
%%%mzn-stat: 2AutonomousSearchNumPredicatesRemoved=0
%%%mzn-stat: 2AutonomousSearchNumCalls=117
%%%mzn-stat: 2AutonomousSearchNumPredicatesAdded=259
%%%mzn-stat: 2AutonomousSearchAverageSizeOfHeap=2.213675213675214
%%%mzn-stat: 2AutonomousSearchNumAssignedPredicatesEncountered=259
%%%mzn-stat-end
maxleg = 776;
succ = array1d(1..20,[2, 7, 1, 5, 10, 3, 8, 16, 6, 11, 12, 18, 14, 9, 13, 17, 4, 19, 20, 15]);
% time elapsed: 10.91 s
----------
%%%mzn-stat: initTime=0.002459629
%%%mzn-stat: objective=517
%%%mzn-stat: nodes=260
%%%mzn-stat: restarts=0
%%%mzn-stat: peakDepth=127
%%%mzn-stat: solveTime=0.001136164
%%%mzn-stat: variables=280
%%%mzn-stat: propagators=374
%%%mzn-stat: failures=12
%%%mzn-stat: propagations=3173
%%%mzn-stat: nogoods=12
%%%mzn-stat: numAtomicConstraintsPropagated=0
%%%mzn-stat: circuitNumber191PropagationsThatFoundConflict=2
%%%mzn-stat: circuitNumber191TotalFixedEdgesAtConflict=26
%%%mzn-stat: circuitNumber191NumberOfConflicts=2
%%%mzn-stat: circuitNumber191PropagationsThatPruned=12
%%%mzn-stat: circuitNumber191PropagationsTotal=46
%%%mzn-stat: AverageConflictSize=3.3333333333333335
%%%mzn-stat: NumUnitNogoodsLearned=0
%%%mzn-stat: AverageLearnedNogoodLength=9.666666666666666
%%%mzn-stat: AverageBacktrackAmount=0
%%%mzn-stat: AverageLbd=6.333333333333333
%%%mzn-stat: 2AutonomousSearchNumBackupCalled=226
%%%mzn-stat: 2AutonomousSearchNumPredicatesRemoved=0
%%%mzn-stat: 2AutonomousSearchNumCalls=228
%%%mzn-stat: 2AutonomousSearchNumPredicatesAdded=385
%%%mzn-stat: 2AutonomousSearchAverageSizeOfHeap=2.3596491228070176
%%%mzn-stat: 2AutonomousSearchNumAssignedPredicatesEncountered=538
%%%mzn-stat-end
maxleg = 517;
succ = array1d(1..20,[2, 7, 1, 5, 10, 3, 8, 16, 6, 12, 4, 18, 14, 9, 13, 17, 11, 19, 20, 15]);
% time elapsed: 10.91 s
----------
%%%mzn-stat: initTime=0.002459629
%%%mzn-stat: objective=506
%%%mzn-stat: nodes=404
%%%mzn-stat: restarts=0
%%%mzn-stat: peakDepth=127
%%%mzn-stat: solveTime=0.002961248
%%%mzn-stat: variables=280
%%%mzn-stat: propagators=374
%%%mzn-stat: failures=35
%%%mzn-stat: propagations=7582
%%%mzn-stat: nogoods=35
%%%mzn-stat: numAtomicConstraintsPropagated=0
%%%mzn-stat: circuitNumber191PropagationsThatFoundConflict=11
%%%mzn-stat: circuitNumber191TotalFixedEdgesAtConflict=172
%%%mzn-stat: circuitNumber191NumberOfConflicts=11
%%%mzn-stat: circuitNumber191PropagationsThatPruned=42
%%%mzn-stat: circuitNumber191PropagationsTotal=117
%%%mzn-stat: AverageConflictSize=4.828571428571428
%%%mzn-stat: NumUnitNogoodsLearned=0
%%%mzn-stat: AverageLearnedNogoodLength=10.142857142857142
%%%mzn-stat: AverageBacktrackAmount=0
%%%mzn-stat: AverageLbd=7.142857142857143
%%%mzn-stat: 2AutonomousSearchNumBackupCalled=330
%%%mzn-stat: 2AutonomousSearchNumPredicatesRemoved=0
%%%mzn-stat: 2AutonomousSearchNumCalls=333
%%%mzn-stat: 2AutonomousSearchNumPredicatesAdded=662
%%%mzn-stat: 2AutonomousSearchAverageSizeOfHeap=2.7027027027027026
%%%mzn-stat: 2AutonomousSearchNumAssignedPredicatesEncountered=900
%%%mzn-stat-end
maxleg = 506;
succ = array1d(1..20,[2, 7, 1, 5, 10, 9, 8, 16, 13, 11, 3, 4, 15, 6, 20, 17, 14, 12, 18, 19]);
% time elapsed: 10.91 s
----------
%%%mzn-stat: initTime=0.002459629
%%%mzn-stat: objective=471
%%%mzn-stat: nodes=519
%%%mzn-stat: restarts=0
%%%mzn-stat: peakDepth=127
%%%mzn-stat: solveTime=0.003154543
%%%mzn-stat: variables=280
%%%mzn-stat: propagators=374
%%%mzn-stat: failures=35
%%%mzn-stat: propagations=8273
%%%mzn-stat: nogoods=35
%%%mzn-stat: numAtomicConstraintsPropagated=0
%%%mzn-stat: circuitNumber191PropagationsThatFoundConflict=11
%%%mzn-stat: circuitNumber191TotalFixedEdgesAtConflict=172
%%%mzn-stat: circuitNumber191NumberOfConflicts=11
%%%mzn-stat: circuitNumber191PropagationsThatPruned=44
%%%mzn-stat: circuitNumber191PropagationsTotal=129
%%%mzn-stat: AverageConflictSize=4.828571428571428
%%%mzn-stat: NumUnitNogoodsLearned=0
%%%mzn-stat: AverageLearnedNogoodLength=10.142857142857142
%%%mzn-stat: AverageBacktrackAmount=0
%%%mzn-stat: AverageLbd=7.142857142857143
%%%mzn-stat: 2AutonomousSearchNumBackupCalled=434
%%%mzn-stat: 2AutonomousSearchNumPredicatesRemoved=0
%%%mzn-stat: 2AutonomousSearchNumCalls=438
%%%mzn-stat: 2AutonomousSearchNumPredicatesAdded=662
%%%mzn-stat: 2AutonomousSearchAverageSizeOfHeap=2.8812785388127855
%%%mzn-stat: 2AutonomousSearchNumAssignedPredicatesEncountered=1262
%%%mzn-stat-end
maxleg = 471;
succ = array1d(1..20,[2, 7, 1, 5, 10, 9, 8, 16, 13, 11, 3, 4, 15, 6, 20, 17, 14, 19, 12, 18]);
% time elapsed: 10.91 s
----------
%%%mzn-stat: initTime=0.002459629
%%%mzn-stat: objective=464
%%%mzn-stat: nodes=783
%%%mzn-stat: restarts=0
%%%mzn-stat: peakDepth=127
%%%mzn-stat: solveTime=0.017711495
%%%mzn-stat: variables=280
%%%mzn-stat: propagators=374
%%%mzn-stat: failures=190
%%%mzn-stat: propagations=38115
%%%mzn-stat: nogoods=190
%%%mzn-stat: numAtomicConstraintsPropagated=0
%%%mzn-stat: circuitNumber191PropagationsThatFoundConflict=129
%%%mzn-stat: circuitNumber191TotalFixedEdgesAtConflict=2308
%%%mzn-stat: circuitNumber191NumberOfConflicts=129
%%%mzn-stat: circuitNumber191PropagationsThatPruned=279
%%%mzn-stat: circuitNumber191PropagationsTotal=689
%%%mzn-stat: AverageConflictSize=8
%%%mzn-stat: NumUnitNogoodsLearned=0
%%%mzn-stat: AverageLearnedNogoodLength=13.478947368421053
%%%mzn-stat: AverageBacktrackAmount=0
%%%mzn-stat: AverageLbd=7.731578947368421
%%%mzn-stat: 2AutonomousSearchNumBackupCalled=529
%%%mzn-stat: 2AutonomousSearchNumPredicatesRemoved=0
%%%mzn-stat: 2AutonomousSearchNumCalls=534
%%%mzn-stat: 2AutonomousSearchNumPredicatesAdded=1043
%%%mzn-stat: 2AutonomousSearchAverageSizeOfHeap=3.1928838951310863
%%%mzn-stat: 2AutonomousSearchNumAssignedPredicatesEncountered=1705
%%%mzn-stat-end
maxleg = 464;
succ = array1d(1..20,[2, 7, 1, 5, 18, 9, 8, 16, 13, 4, 12, 10, 15, 6, 20, 17, 14, 19, 3, 11]);
% time elapsed: 10.93 s
----------
%%%mzn-stat: initTime=0.002459629
%%%mzn-stat: objective=455
%%%mzn-stat: nodes=2010
%%%mzn-stat: restarts=0
%%%mzn-stat: peakDepth=127
%%%mzn-stat: solveTime=0.121242779
%%%mzn-stat: variables=280
%%%mzn-stat: propagators=374
%%%mzn-stat: failures=1283
%%%mzn-stat: propagations=244895
%%%mzn-stat: nogoods=1283
%%%mzn-stat: numAtomicConstraintsPropagated=0
%%%mzn-stat: circuitNumber191PropagationsThatFoundConflict=1067
%%%mzn-stat: circuitNumber191TotalFixedEdgesAtConflict=18412
%%%mzn-stat: circuitNumber191NumberOfConflicts=1067
%%%mzn-stat: circuitNumber191PropagationsThatPruned=1525
%%%mzn-stat: circuitNumber191PropagationsTotal=4297
%%%mzn-stat: AverageConflictSize=8.612626656274356
%%%mzn-stat: NumUnitNogoodsLearned=0
%%%mzn-stat: AverageLearnedNogoodLength=15.59937646141855
%%%mzn-stat: AverageBacktrackAmount=0
%%%mzn-stat: AverageLbd=7.609508963367109
%%%mzn-stat: 2AutonomousSearchNumBackupCalled=628
%%%mzn-stat: 2AutonomousSearchNumPredicatesRemoved=0
%%%mzn-stat: 2AutonomousSearchNumCalls=634
%%%mzn-stat: 2AutonomousSearchNumPredicatesAdded=1537
%%%mzn-stat: 2AutonomousSearchAverageSizeOfHeap=3.5757097791798107
%%%mzn-stat: 2AutonomousSearchNumAssignedPredicatesEncountered=2267
%%%mzn-stat-end
maxleg = 455;
succ = array1d(1..20,[2, 7, 11, 5, 10, 9, 8, 16, 13, 1, 12, 4, 15, 6, 20, 17, 14, 3, 18, 19]);
% time elapsed: 11.03 s
----------
%%%mzn-stat: initTime=0.002459629
%%%mzn-stat: objective=388
%%%mzn-stat: nodes=2111
%%%mzn-stat: restarts=0
%%%mzn-stat: peakDepth=127
%%%mzn-stat: solveTime=0.121532602
%%%mzn-stat: variables=280
%%%mzn-stat: propagators=374
%%%mzn-stat: failures=1283
%%%mzn-stat: propagations=245607
%%%mzn-stat: nogoods=1283
%%%mzn-stat: numAtomicConstraintsPropagated=0
%%%mzn-stat: circuitNumber191PropagationsThatFoundConflict=1067
%%%mzn-stat: circuitNumber191TotalFixedEdgesAtConflict=18412
%%%mzn-stat: circuitNumber191NumberOfConflicts=1067
%%%mzn-stat: circuitNumber191PropagationsThatPruned=1528
%%%mzn-stat: circuitNumber191PropagationsTotal=4311
%%%mzn-stat: AverageConflictSize=8.612626656274356
%%%mzn-stat: NumUnitNogoodsLearned=0
%%%mzn-stat: AverageLearnedNogoodLength=15.59937646141855
%%%mzn-stat: AverageBacktrackAmount=0
%%%mzn-stat: AverageLbd=7.609508963367109
%%%mzn-stat: 2AutonomousSearchNumBackupCalled=717
%%%mzn-stat: 2AutonomousSearchNumPredicatesRemoved=0
%%%mzn-stat: 2AutonomousSearchNumCalls=724
%%%mzn-stat: 2AutonomousSearchNumPredicatesAdded=1537
%%%mzn-stat: 2AutonomousSearchAverageSizeOfHeap=3.907458563535912
%%%mzn-stat: 2AutonomousSearchNumAssignedPredicatesEncountered=2829
%%%mzn-stat-end
maxleg = 388;
succ = array1d(1..20,[2, 7, 11, 5, 10, 9, 8, 16, 13, 1, 12, 4, 15, 6, 20, 17, 14, 19, 3, 18]);
% time elapsed: 11.03 s
----------
==========
% time elapsed: 17.53 s
%%%mzn-stat: initTime=0.002459629
%%%mzn-stat: objective=388
%%%mzn-stat: nodes=68263
%%%mzn-stat: restarts=0
%%%mzn-stat: peakDepth=127
%%%mzn-stat: solveTime=6.622920861
%%%mzn-stat: variables=280
%%%mzn-stat: propagators=374
%%%mzn-stat: failures=66552
%%%mzn-stat: propagations=9026109
%%%mzn-stat: nogoods=66552
%%%mzn-stat: numAtomicConstraintsPropagated=0
%%%mzn-stat: circuitNumber191PropagationsThatFoundConflict=42640
%%%mzn-stat: circuitNumber191TotalFixedEdgesAtConflict=709366
%%%mzn-stat: circuitNumber191NumberOfConflicts=42640
%%%mzn-stat: circuitNumber191PropagationsThatPruned=23978
%%%mzn-stat: circuitNumber191PropagationsTotal=121269
%%%mzn-stat: AverageConflictSize=12.187011660055296
%%%mzn-stat: NumUnitNogoodsLearned=1
%%%mzn-stat: AverageLearnedNogoodLength=16.160310734463277
%%%mzn-stat: AverageBacktrackAmount=0
%%%mzn-stat: AverageLbd=6.9057879552830865
%%%mzn-stat: 2AutonomousSearchNumBackupCalled=717
%%%mzn-stat: 2AutonomousSearchNumPredicatesRemoved=0
%%%mzn-stat: 2AutonomousSearchNumCalls=724
%%%mzn-stat: 2AutonomousSearchNumPredicatesAdded=2268
%%%mzn-stat: 2AutonomousSearchAverageSizeOfHeap=3.907458563535912
%%%mzn-stat: 2AutonomousSearchNumAssignedPredicatesEncountered=2829
%%%mzn-stat-end
